c File: flat50_3_0.col
c
c SOURCE: Joseph Culberson (joe@cs.ualberta.ca)
c DESCRIPTION: Quasi-random coloring problem
c              generated with flatness = 0
c                             probability = 0.139
c                             known coloring = 3
c                             random seed = 1362
c              Creation Date:  Tue Jun  9 12:07:30 1998
c Maximum degree = 8 Minimum degree = 1
c p edge 50 115
c cnf created by edge2cnf
p cnf 150 545
-1 -2 0
-1 -3 0
-2 -3 0
1 2 3 0
-4 -5 0
-4 -6 0
-5 -6 0
4 5 6 0
-7 -8 0
-7 -9 0
-8 -9 0
7 8 9 0
-10 -11 0
-10 -12 0
-11 -12 0
10 11 12 0
-13 -14 0
-13 -15 0
-14 -15 0
13 14 15 0
-16 -17 0
-16 -18 0
-17 -18 0
16 17 18 0
-19 -20 0
-19 -21 0
-20 -21 0
19 20 21 0
-22 -23 0
-22 -24 0
-23 -24 0
22 23 24 0
-25 -26 0
-25 -27 0
-26 -27 0
25 26 27 0
-28 -29 0
-28 -30 0
-29 -30 0
28 29 30 0
-31 -32 0
-31 -33 0
-32 -33 0
31 32 33 0
-34 -35 0
-34 -36 0
-35 -36 0
34 35 36 0
-37 -38 0
-37 -39 0
-38 -39 0
37 38 39 0
-40 -41 0
-40 -42 0
-41 -42 0
40 41 42 0
-43 -44 0
-43 -45 0
-44 -45 0
43 44 45 0
-46 -47 0
-46 -48 0
-47 -48 0
46 47 48 0
-49 -50 0
-49 -51 0
-50 -51 0
49 50 51 0
-52 -53 0
-52 -54 0
-53 -54 0
52 53 54 0
-55 -56 0
-55 -57 0
-56 -57 0
55 56 57 0
-58 -59 0
-58 -60 0
-59 -60 0
58 59 60 0
-61 -62 0
-61 -63 0
-62 -63 0
61 62 63 0
-64 -65 0
-64 -66 0
-65 -66 0
64 65 66 0
-67 -68 0
-67 -69 0
-68 -69 0
67 68 69 0
-70 -71 0
-70 -72 0
-71 -72 0
70 71 72 0
-73 -74 0
-73 -75 0
-74 -75 0
73 74 75 0
-76 -77 0
-76 -78 0
-77 -78 0
76 77 78 0
-79 -80 0
-79 -81 0
-80 -81 0
79 80 81 0
-82 -83 0
-82 -84 0
-83 -84 0
82 83 84 0
-85 -86 0
-85 -87 0
-86 -87 0
85 86 87 0
-88 -89 0
-88 -90 0
-89 -90 0
88 89 90 0
-91 -92 0
-91 -93 0
-92 -93 0
91 92 93 0
-94 -95 0
-94 -96 0
-95 -96 0
94 95 96 0
-97 -98 0
-97 -99 0
-98 -99 0
97 98 99 0
-100 -101 0
-100 -102 0
-101 -102 0
100 101 102 0
-103 -104 0
-103 -105 0
-104 -105 0
103 104 105 0
-106 -107 0
-106 -108 0
-107 -108 0
106 107 108 0
-109 -110 0
-109 -111 0
-110 -111 0
109 110 111 0
-112 -113 0
-112 -114 0
-113 -114 0
112 113 114 0
-115 -116 0
-115 -117 0
-116 -117 0
115 116 117 0
-118 -119 0
-118 -120 0
-119 -120 0
118 119 120 0
-121 -122 0
-121 -123 0
-122 -123 0
121 122 123 0
-124 -125 0
-124 -126 0
-125 -126 0
124 125 126 0
-127 -128 0
-127 -129 0
-128 -129 0
127 128 129 0
-130 -131 0
-130 -132 0
-131 -132 0
130 131 132 0
-133 -134 0
-133 -135 0
-134 -135 0
133 134 135 0
-136 -137 0
-136 -138 0
-137 -138 0
136 137 138 0
-139 -140 0
-139 -141 0
-140 -141 0
139 140 141 0
-142 -143 0
-142 -144 0
-143 -144 0
142 143 144 0
-145 -146 0
-145 -147 0
-146 -147 0
145 146 147 0
-148 -149 0
-148 -150 0
-149 -150 0
148 149 150 0
-61 -1 0
-62 -2 0
-63 -3 0
-100 -1 0
-101 -2 0
-102 -3 0
-139 -1 0
-140 -2 0
-141 -3 0
-67 -4 0
-68 -5 0
-69 -6 0
-88 -4 0
-89 -5 0
-90 -6 0
-121 -4 0
-122 -5 0
-123 -6 0
-145 -4 0
-146 -5 0
-147 -6 0
-82 -7 0
-83 -8 0
-84 -9 0
-100 -7 0
-101 -8 0
-102 -9 0
-112 -7 0
-113 -8 0
-114 -9 0
-130 -7 0
-131 -8 0
-132 -9 0
-133 -7 0
-134 -8 0
-135 -9 0
-136 -7 0
-137 -8 0
-138 -9 0
-55 -10 0
-56 -11 0
-57 -12 0
-73 -10 0
-74 -11 0
-75 -12 0
-130 -10 0
-131 -11 0
-132 -12 0
-148 -10 0
-149 -11 0
-150 -12 0
-61 -13 0
-62 -14 0
-63 -15 0
-64 -13 0
-65 -14 0
-66 -15 0
-85 -13 0
-86 -14 0
-87 -15 0
-106 -13 0
-107 -14 0
-108 -15 0
-130 -13 0
-131 -14 0
-132 -15 0
-55 -16 0
-56 -17 0
-57 -18 0
-73 -16 0
-74 -17 0
-75 -18 0
-109 -16 0
-110 -17 0
-111 -18 0
-139 -16 0
-140 -17 0
-141 -18 0
-106 -19 0
-107 -20 0
-108 -21 0
-127 -19 0
-128 -20 0
-129 -21 0
-52 -22 0
-53 -23 0
-54 -24 0
-67 -22 0
-68 -23 0
-69 -24 0
-70 -22 0
-71 -23 0
-72 -24 0
-85 -22 0
-86 -23 0
-87 -24 0
-106 -22 0
-107 -23 0
-108 -24 0
-109 -22 0
-110 -23 0
-111 -24 0
-118 -22 0
-119 -23 0
-120 -24 0
-148 -22 0
-149 -23 0
-150 -24 0
-64 -25 0
-65 -26 0
-66 -27 0
-115 -25 0
-116 -26 0
-117 -27 0
-73 -28 0
-74 -29 0
-75 -30 0
-85 -28 0
-86 -29 0
-87 -30 0
-118 -28 0
-119 -29 0
-120 -30 0
-61 -31 0
-62 -32 0
-63 -33 0
-85 -31 0
-86 -32 0
-87 -33 0
-100 -31 0
-101 -32 0
-102 -33 0
-127 -31 0
-128 -32 0
-129 -33 0
-142 -31 0
-143 -32 0
-144 -33 0
-64 -34 0
-65 -35 0
-66 -36 0
-70 -34 0
-71 -35 0
-72 -36 0
-97 -34 0
-98 -35 0
-99 -36 0
-121 -34 0
-122 -35 0
-123 -36 0
-133 -34 0
-134 -35 0
-135 -36 0
-55 -37 0
-56 -38 0
-57 -39 0
-67 -37 0
-68 -38 0
-69 -39 0
-115 -37 0
-116 -38 0
-117 -39 0
-118 -37 0
-119 -38 0
-120 -39 0
-121 -37 0
-122 -38 0
-123 -39 0
-127 -37 0
-128 -38 0
-129 -39 0
-76 -40 0
-77 -41 0
-78 -42 0
-136 -40 0
-137 -41 0
-138 -42 0
-70 -43 0
-71 -44 0
-72 -45 0
-73 -43 0
-74 -44 0
-75 -45 0
-88 -43 0
-89 -44 0
-90 -45 0
-97 -43 0
-98 -44 0
-99 -45 0
-106 -43 0
-107 -44 0
-108 -45 0
-112 -43 0
-113 -44 0
-114 -45 0
-127 -43 0
-128 -44 0
-129 -45 0
-142 -43 0
-143 -44 0
-144 -45 0
-79 -46 0
-80 -47 0
-81 -48 0
-88 -46 0
-89 -47 0
-90 -48 0
-100 -46 0
-101 -47 0
-102 -48 0
-121 -46 0
-122 -47 0
-123 -48 0
-139 -46 0
-140 -47 0
-141 -48 0
-145 -46 0
-146 -47 0
-147 -48 0
-58 -49 0
-59 -50 0
-60 -51 0
-61 -49 0
-62 -50 0
-63 -51 0
-64 -49 0
-65 -50 0
-66 -51 0
-91 -49 0
-92 -50 0
-93 -51 0
-124 -49 0
-125 -50 0
-126 -51 0
-133 -52 0
-134 -53 0
-135 -54 0
-109 -55 0
-110 -56 0
-111 -57 0
-112 -55 0
-113 -56 0
-114 -57 0
-127 -55 0
-128 -56 0
-129 -57 0
-109 -58 0
-110 -59 0
-111 -60 0
-112 -58 0
-113 -59 0
-114 -60 0
-118 -58 0
-119 -59 0
-120 -60 0
-130 -58 0
-131 -59 0
-132 -60 0
-109 -61 0
-110 -62 0
-111 -63 0
-139 -61 0
-140 -62 0
-141 -63 0
-124 -64 0
-125 -65 0
-126 -66 0
-127 -64 0
-128 -65 0
-129 -66 0
-136 -64 0
-137 -65 0
-138 -66 0
-112 -67 0
-113 -68 0
-114 -69 0
-127 -67 0
-128 -68 0
-129 -69 0
-142 -67 0
-143 -68 0
-144 -69 0
-139 -70 0
-140 -71 0
-141 -72 0
-142 -73 0
-143 -74 0
-144 -75 0
-106 -76 0
-107 -77 0
-108 -78 0
-142 -76 0
-143 -77 0
-144 -78 0
-124 -79 0
-125 -80 0
-126 -81 0
-130 -79 0
-131 -80 0
-132 -81 0
-145 -79 0
-146 -80 0
-147 -81 0
-106 -82 0
-107 -83 0
-108 -84 0
-115 -82 0
-116 -83 0
-117 -84 0
-118 -82 0
-119 -83 0
-120 -84 0
-148 -82 0
-149 -83 0
-150 -84 0
-115 -88 0
-116 -89 0
-117 -90 0
-121 -91 0
-122 -92 0
-123 -93 0
-124 -91 0
-125 -92 0
-126 -93 0
-103 -94 0
-104 -95 0
-105 -96 0
-106 -97 0
-107 -98 0
-108 -99 0
-115 -97 0
-116 -98 0
-117 -99 0
-133 -97 0
-134 -98 0
-135 -99 0
-124 -100 0
-125 -101 0
-126 -102 0
-130 -100 0
-131 -101 0
-132 -102 0
-136 -100 0
-137 -101 0
-138 -102 0
